(set-info :smt-lib-version 2.6)
(set-logic QF_UFLRA)
(set-info :source |
MathSat group

|)
(set-info :category "random")
(set-info :status sat)
(declare-fun x0 () Real)
(declare-fun x1 () Real)
(declare-fun x2 () Real)
(declare-fun x3 () Real)
(declare-fun x4 () Real)
(declare-fun x5 () Real)
(declare-fun x6 () Real)
(declare-fun x7 () Real)
(declare-fun x8 () Real)
(declare-fun x9 () Real)
(declare-fun x10 () Real)
(declare-fun x11 () Real)
(declare-fun x12 () Real)
(declare-fun x13 () Real)
(declare-fun x14 () Real)
(declare-fun x15 () Real)
(declare-fun x16 () Real)
(declare-fun x17 () Real)
(declare-fun x18 () Real)
(declare-fun x19 () Real)
(declare-fun x20 () Real)
(declare-fun x21 () Real)
(declare-fun x22 () Real)
(declare-fun x23 () Real)
(declare-fun x24 () Real)
(declare-fun x25 () Real)
(declare-fun x26 () Real)
(declare-fun x27 () Real)
(declare-fun x28 () Real)
(declare-fun x29 () Real)
(declare-fun f0_1 (Real) Real)
(declare-fun f0_2 (Real Real) Real)
(declare-fun f0_3 (Real Real Real) Real)
(declare-fun f0_4 (Real Real Real Real) Real)
(declare-fun P0 () Bool)
(declare-fun P1 () Bool)
(declare-fun P2 () Bool)
(declare-fun P3 () Bool)
(declare-fun P4 () Bool)
(declare-fun P5 () Bool)
(declare-fun P6 () Bool)
(declare-fun P7 () Bool)
(declare-fun P8 () Bool)
(declare-fun P9 () Bool)
(declare-fun P10 () Bool)
(declare-fun P11 () Bool)
(declare-fun P12 () Bool)
(declare-fun P13 () Bool)
(declare-fun P14 () Bool)
(declare-fun P15 () Bool)
(declare-fun P16 () Bool)
(declare-fun P17 () Bool)
(declare-fun P18 () Bool)
(declare-fun P19 () Bool)
(declare-fun P20 () Bool)
(declare-fun P21 () Bool)
(declare-fun P22 () Bool)
(declare-fun P23 () Bool)
(declare-fun P24 () Bool)
(declare-fun P25 () Bool)
(declare-fun P26 () Bool)
(declare-fun P27 () Bool)
(declare-fun P28 () Bool)
(declare-fun P29 () Bool)
(assert (let ((?v_43 (= (- (+ (* 40 x26) (* 4 x9)) (* 39 x15)) 10)) (?v_17 (< (+ (- (* 23 x18) (* 38 x13)) (* 37 x20)) 2)) (?v_70 (= (+ (- (* 34 x12) (* 4 x16)) (* 13 x7)) 34)) (?v_38 (= x14 (f0_2 x20 x0))) (?v_34 (f0_1 x15))) (let ((?v_51 (= ?v_34 (f0_2 x12 x18))) (?v_26 (= (f0_2 x22 x8) (f0_1 x0))) (?v_6 (= x1 (f0_1 x5))) (?v_139 (distinct (f0_1 x28) x25)) (?v_49 (= ?v_34 (f0_2 x21 x19))) (?v_11 (f0_1 x14))) (let ((?v_13 (= x20 ?v_11)) (?v_37 (= (f0_2 x16 x27) (f0_2 x8 x26))) (?v_0 (distinct x11 (f0_2 x17 x13))) (?v_3 (distinct (f0_2 x11 x23) (f0_2 x12 x8))) (?v_31 (f0_2 x9 x0))) (let ((?v_39 (distinct ?v_31 (f0_2 x28 x4))) (?v_53 (= x14 (f0_2 x9 x3))) (?v_54 (= x12 x0)) (?v_47 (distinct x22 ?v_31)) (?v_32 (distinct (f0_2 x26 x10) (f0_2 x14 x13))) (?v_74 (= x11 x25)) (?v_90 (distinct (f0_2 x3 x11) (f0_2 x6 x4))) (?v_27 (= (f0_2 x2 x10) x26)) (?v_106 (distinct (f0_2 x16 x2) (f0_2 x6 x8))) (?v_119 (= (f0_2 x7 x27) (f0_2 x4 x16))) (?v_73 (= (f0_2 x27 x28) (f0_2 x4 x21))) (?v_5 (distinct x1 (f0_2 x13 x9))) (?v_55 (distinct (f0_1 x18) (f0_1 x9))) (?v_21 (distinct (f0_1 x3) x6)) (?v_93 (distinct (f0_2 x14 x26) (f0_2 x2 x3))) (?v_20 (= (f0_1 x27) x5)) (?v_29 (= x10 x11)) (?v_133 (distinct (f0_2 x20 x15) (f0_2 x13 x24))) (?v_24 (= ?v_11 (f0_2 x25 x21))) (?v_141 (distinct x11 ?v_11))) (let ((?v_97 (not ?v_29)) (?v_7 (not P13)) (?v_22 (not ?v_3)) (?v_9 (not P5)) (?v_107 (not ?v_0)) (?v_124 (not ?v_139)) (?v_2 (not P10)) (?v_46 (not P26)) (?v_67 (not P25)) (?v_60 (not P28)) (?v_4 (not ?v_32)) (?v_61 (not ?v_5)) (?v_79 (not ?v_26)) (?v_52 (not P17)) (?v_59 (not P14)) (?v_25 (not ?v_17)) (?v_14 (not P19)) (?v_19 (not P1)) (?v_15 (not ?v_13)) (?v_122 (not ?v_106)) (?v_92 (not P21))) (let ((?v_144 (or ?v_21 ?v_92)) (?v_58 (not ?v_6)) (?v_16 (not P24)) (?v_44 (not ?v_54)) (?v_30 (not P9)) (?v_82 (not ?v_119)) (?v_45 (not ?v_20)) (?v_28 (not P8)) (?v_132 (not ?v_21)) (?v_33 (not P2)) (?v_125 (not P16)) (?v_78 (not P7)) (?v_71 (not ?v_24)) (?v_98 (not P27)) (?v_75 (not P15)) (?v_36 (not ?v_51)) (?v_72 (not P12)) (?v_42 (not ?v_49)) (?v_50 (not ?v_53)) (?v_102 (not P3)) (?v_80 (not ?v_37)) (?v_62 (not ?v_38)) (?v_111 (not P22)) (?v_134 (not P18)) (?v_83 (not P4)) (?v_66 (not P0)) (?v_91 (not ?v_55)) (?v_120 (not P11)) (?v_96 (not P20)) (?v_99 (not ?v_47)) (?v_81 (not ?v_74)) (?v_115 (not P6)) (?v_123 (not ?v_73)) (?v_86 (not P23)) (?v_108 (not ?v_43)) (?v_135 (not ?v_90)) (?v_100 (not ?v_133)) (?v_130 (not ?v_27)) (?v_113 (not ?v_39)) (?v_152 (not ?v_70)) (?v_127 (not P29))) (let ((?v_131 (or ?v_58 P2)) (?v_149 (not ?v_93)) (?v_8 (< (- (- 0 (* 20 x2)) (* 41 x17)) 16)) (?v_18 (<= (+ (* 10 x11) (* 16 x28) (* 34 x29)) 12)) (?v_101 (< (- (- 0 (* 17 x1)) (* 6 x12)) 22))) (let ((?v_88 (not ?v_18)) (?v_109 (<= (+ (* 7 x10) (* 42 x11)) 43))) (let ((?v_77 (not ?v_109)) (?v_85 (distinct (- (- x22 (* 23 x3)) (* 7 x1)) 15)) (?v_138 (not ?v_8)) (?v_95 (< (+ (- x14 (* 23 x1)) (* 20 x14)) 31))) (let ((?v_104 (not ?v_85)) (?v_145 (not ?v_101)) (?v_147 (not ?v_95)) (?v_105 (<= (+ (* 34 x23) (* 40 x25) (* 6 x29)) (- 2)))) (let ((?v_1 (not ?v_105)) (?v_150 (<= (+ (* (- 6) x27) (* 27 x26) (* 30 x8)) (- 42)))) (let ((?v_48 (not ?v_150)) (?v_23 (= (+ (* 29 x14) (* 20 x19)) (- 14)))) (let ((?v_63 (not ?v_23)) (?v_12 (< (- (- (* 13 x25) (* 17 x7)) (* 38 x14)) (- 8))) (?v_65 (<= (- (* 15 x3) (* 29 x28)) (- 42))) (?v_10 (distinct (- (- (* (- 42) x8) (* 42 x26)) (* 29 x19)) 19)) (?v_35 (distinct (- (- (* (- 37) x20) 0) (* 41 x28)) (- 28))) (?v_68 (not (< (+ (* (- 33) x4) (* 34 x20) (* 8 x11)) (- 18)))) (?v_153 (< (- (+ (* 17 x23) (* 9 x20)) (* 6 x5)) (- 14)))) (let ((?v_116 (not ?v_153)) (?v_126 (not ?v_10)) (?v_56 (= (- (- (* (- 18) x8) (* 42 x16)) (* 25 x5)) 6))) (let ((?v_41 (not ?v_56)) (?v_57 (not ?v_12)) (?v_40 (< (- (+ (* (- 24) x19) (* 22 x21)) (* 36 x20)) (- 3))) (?v_89 (not ?v_35)) (?v_110 (< (- (+ (* 32 x22) (* 42 x8)) (* 35 x2)) (- 5))) (?v_69 (< (- (+ (* (- 42) x9) (* 40 x14)) (* 41 x14)) 24))) (let ((?v_129 (not ?v_40)) (?v_76 (<= (+ (* (- 40) x6) (* 42 x28) (* 40 x15)) (- 13))) (?v_64 (<= (+ (- (* 30 x26) (* 33 x6)) (* 16 x4)) (- 41))) (?v_118 (< (+ (- (* 4 x23) (* 10 x23)) (* 10 x10)) (- 43)))) (let ((?v_84 (not ?v_118)) (?v_121 (< (- (- (* (- 7) x27) (* 4 x11)) (* 28 x16)) 31)) (?v_128 (not ?v_64)) (?v_103 (distinct (+ (* 20 x0) (* 31 x26) (* 20 x18)) (- 32)))) (let ((?v_146 (not ?v_103)) (?v_87 (not ?v_69)) (?v_94 (not ?v_76)) (?v_151 (< (- (- (* (- 7) x18) (* 9 x29)) (* 6 x18)) 42))) (let ((?v_112 (not ?v_151)) (?v_114 (or ?v_57 P10)) (?v_117 (<= (+ (* (- 3) x17) (* 37 x16) (* 12 x10)) (- 3))) (?v_143 (not ?v_110))) (let ((?v_142 (not ?v_117)) (?v_136 (< (- (- (* 19 x9) (* 34 x8)) (* 12 x2)) (- 17))) (?v_140 (or ?v_26 ?v_48)) (?v_137 (not ?v_121))) (let ((?v_148 (not ?v_136))) (and (and (and (and (and (and (and (and (and (and (and (and (and (and (and (and (and (and (and (and (and (and (and (and (and (and (and (and (and (and (and (and (and (and (and (and (and (and (and (and (and (and (and (and (and (and (and (and (and (and (and (and (and (and (and (and (and (and (and (and (and (and (and (and (and (and (and (and (and (and (and (and (and (and (and (and (and (and (and (and (and (and (and (and (and (and (and (and (and (and (and (and (and (and (and (and (and (and (and (and (and (and (and (and (and (and (and (and (and (and (and (and (and (and (and (and (and (and (and (and (and (and (and (and (and (and (and (and (and (and (and (and (and (and (and (and (and (and (and (and (and (and (and (and (and (and (and (and (and (and (and (and (and (and (and (and (and (and (and (and (and (and (and (and (and (and (and (and (and (and (and (and (and (and (and (and (and (and (and (and (and (and (and (and (and (and (and (and (and (and (and (and (and (and (and (and (and (and (and (and (and (and (and (and (and (and (and (and (and (and (and (and (and (and (and (and (and (and (and (and (and (and (and (and (and (and (and (and (and (and (and (and (and (and (and (and (and (and (and (and (and (and (and (and (and (and (and (and (and (and (and (and (and (and (and (and (and (and (and (and (and (and (and (and (and (and (and (and (and (and (and (and (and (and (and (and (and (and (and (and (and (and (and (and (and (and (and (and (and (and (and (and (and (and (and (and (and (and (and (and (and (and (and (and (and (and (and (and (and (and (and (and (and (and (and (and (and (and (and (and (and (and (and (and (and (and (and (and (and (and (and (and (and (and (and (and (and (and (and (and (and (and (and (and (and (and (and (and (and (and (and (and (and (and (and (and (and (and (and (or (or ?v_97 ?v_7) ?v_5) (or (or ?v_0 P16) ?v_93)) (or (or ?v_1 ?v_48) ?v_22)) (or (or ?v_9 ?v_107) P23)) (or (or ?v_8 ?v_39) ?v_124)) (or (or ?v_2 ?v_46) ?v_1)) (or (or ?v_6 ?v_67) ?v_63)) (or (or ?v_60 ?v_2) ?v_4)) (or (or ?v_3 P18) ?v_4)) (or (or ?v_4 ?v_61) ?v_20)) (or (or ?v_6 ?v_79) P20)) (or (or ?v_43 ?v_52) ?v_7)) (or (or ?v_8 P14) ?v_6)) (or (or ?v_12 ?v_65) ?v_59)) (or (or P23 ?v_9) ?v_10)) (or (or ?v_24 ?v_4) ?v_38)) (or (or ?v_10 ?v_5) P20)) (or (or P10 P6) ?v_25)) (or (or ?v_14 ?v_19) ?v_1)) (or (or ?v_15 P17) ?v_27)) (or (or ?v_141 ?v_122) P20)) (or ?v_144 ?v_12)) (or (or ?v_58 ?v_13) ?v_14)) (or (or ?v_16 ?v_44) P8)) (or (or ?v_35 ?v_10) ?v_15)) (or (or P19 P29) P8)) (or (or ?v_18 ?v_7) ?v_101)) (or (or ?v_3 ?v_68) ?v_16)) (or (or ?v_37 ?v_17) ?v_30)) (or (or ?v_116 ?v_18) ?v_82)) (or (or ?v_55 ?v_8) ?v_19)) (or (or ?v_45 ?v_17) ?v_28)) (or (or P14 ?v_88) ?v_126)) (or (or ?v_132 ?v_33) ?v_125)) (or (or ?v_18 ?v_22) ?v_13)) (or (or ?v_78 ?v_23) ?v_71)) (or (or P16 ?v_70) ?v_25)) (or (or P8 ?v_26) P7)) (or (or ?v_20 ?v_41) ?v_57)) (or (or ?v_27 ?v_28) ?v_77)) (or (or P25 P26) ?v_98)) (or (or ?v_29 ?v_75) P1)) (or (or P9 ?v_19) P0)) (or (or P26 ?v_40) ?v_85)) (or (or ?v_30 P13) ?v_13)) (or (or ?v_47 P1) ?v_36)) (or (or ?v_72 ?v_32) ?v_33)) (or (or ?v_42 ?v_12) ?v_28)) (or (or ?v_73 ?v_89) ?v_0)) (or (or ?v_110 ?v_36) ?v_50)) (or (or ?v_0 ?v_69) P9)) (or (or ?v_102 ?v_80) ?v_62)) (or (or ?v_111 P20) P6)) (or (or ?v_19 ?v_39) ?v_10)) (or (or ?v_129 ?v_21) ?v_22)) (or (or ?v_134 ?v_76) P12)) (or (or ?v_41 ?v_42) ?v_43)) (or (or ?v_25 ?v_44) ?v_83)) (or (or ?v_26 ?v_45) ?v_64)) (or (or ?v_46 ?v_47) ?v_66)) (or (or ?v_48 ?v_49) ?v_50)) (or (or ?v_51 ?v_52) ?v_53)) (or (or P22 ?v_54) ?v_91)) (or (or ?v_56 ?v_30) ?v_57)) (or (or ?v_58 ?v_20) ?v_1)) (or (or ?v_138 ?v_0) ?v_37)) (or (or P11 ?v_1) ?v_59)) (or (or ?v_60 P24) ?v_57)) (or (or ?v_61 ?v_6) ?v_84)) (or (or ?v_62 ?v_121) ?v_63)) (or (or P24 ?v_17) P7)) (or (or ?v_53 ?v_128) ?v_38)) (or (or ?v_65 ?v_120) ?v_96)) (or (or ?v_146 ?v_18) ?v_66)) (or (or P20 ?v_8) ?v_99)) (or (or ?v_67 ?v_49) ?v_16)) (or (or ?v_68 ?v_57) ?v_14)) (or (or P9 ?v_81) ?v_115)) (or (or P22 ?v_48) ?v_87)) (or (or P21 P22) ?v_70)) (or (or ?v_71 ?v_50) ?v_72)) (or (or ?v_9 ?v_19) ?v_7)) (or (or P6 ?v_35) ?v_64)) (or (or ?v_4 ?v_123) ?v_72)) (or (or ?v_74 ?v_75) ?v_86)) (or (or P1 ?v_76) ?v_77)) (or (or ?v_78 ?v_25) ?v_3)) (or (or ?v_64 ?v_79) ?v_80)) (or (or ?v_95 ?v_68) ?v_39)) (or (or ?v_54 ?v_13) ?v_14)) (or (or ?v_81 ?v_47) ?v_82)) (or (or P17 ?v_25) ?v_26)) (or (or ?v_16 ?v_83) P21)) (or (or ?v_70 ?v_84) ?v_73)) (or (or P26 ?v_90) ?v_104)) (or (or ?v_46 P27) ?v_27)) (or (or ?v_74 ?v_8) ?v_86)) (or (or ?v_30 ?v_108) ?v_8)) (or (or ?v_29 ?v_48) P16)) (or (or ?v_94 ?v_57) ?v_87)) (or (or ?v_88 ?v_24) P24)) (or (or ?v_67 ?v_16) ?v_89)) (or (or ?v_112 ?v_135) ?v_13)) (or (or P5 ?v_91) ?v_1)) (or (or P9 P15) ?v_49)) (or (or P29 P3) ?v_86)) (or (or ?v_1 ?v_92) ?v_93)) (or (or ?v_42 ?v_68) ?v_25)) (or (or ?v_91 ?v_72) ?v_38)) (or (or ?v_94 ?v_54) P1)) (or (or ?v_95 ?v_96) ?v_97)) (or (or ?v_37 P22) ?v_24)) (or (or P10 ?v_91) P22)) (or (or ?v_98 ?v_57) ?v_27)) (or (or ?v_63 ?v_85) ?v_99)) (or (or ?v_30 ?v_90) ?v_64)) (or (or ?v_70 ?v_40) ?v_39)) (or (or P14 ?v_96) ?v_100)) (or (or ?v_100 ?v_101) ?v_102)) (or (or ?v_103 ?v_102) P11)) (or (or ?v_29 ?v_16) ?v_74)) (or (or ?v_68 ?v_96) ?v_104)) (or (or ?v_44 ?v_40) ?v_60)) (or (or ?v_9 ?v_63) P17)) (or (or ?v_105 ?v_145) ?v_45)) (or (or ?v_106 ?v_107) ?v_83)) (or (or ?v_85 ?v_108) ?v_33)) (or ?v_114 ?v_70)) (or (or ?v_9 ?v_25) ?v_19)) (or (or ?v_10 ?v_26) ?v_12)) (or (or ?v_15 ?v_64) ?v_48)) (or (or ?v_40 ?v_109) ?v_82)) (or (or ?v_8 ?v_130) ?v_110)) (or (or ?v_52 ?v_89) ?v_22)) (or (or ?v_63 P25) ?v_111)) (or (or ?v_113 P19) ?v_112)) (or (or ?v_80 ?v_1) ?v_76)) (or (or ?v_95 ?v_72) ?v_23)) (or (or ?v_36 ?v_83) ?v_20)) (or (or ?v_117 ?v_21) ?v_32)) (or (or P6 ?v_8) ?v_110)) (or (or P27 ?v_14) ?v_152)) (or (or P13 ?v_113) ?v_67)) (or (or ?v_99 ?v_16) ?v_102)) (or (or P28 ?v_102) P2)) (or (or ?v_89 ?v_143) ?v_8)) (or ?v_114 P2)) (or (or ?v_86 ?v_76) ?v_42)) (or (or ?v_67 P22) ?v_93)) (or (or ?v_115 ?v_87) ?v_116)) (or (or ?v_7 ?v_142) ?v_63)) (or (or ?v_102 P20) ?v_74)) (or (or ?v_93 ?v_54) P16)) (or (or P28 P3) ?v_118)) (or (or P22 P29) P19)) (or (or ?v_58 P10) ?v_25)) (or (or ?v_78 ?v_88) ?v_119)) (or (or ?v_95 ?v_41) ?v_67)) (or (or ?v_120 P2) ?v_86)) (or (or ?v_85 ?v_3) ?v_37)) (or (or ?v_36 ?v_121) ?v_122)) (or (or ?v_60 ?v_59) ?v_97)) (or (or ?v_136 ?v_3) ?v_67)) (or (or ?v_109 ?v_127) ?v_65)) (or (or ?v_48 P16) ?v_4)) (or (or ?v_20 ?v_50) ?v_96)) (or (or ?v_39 ?v_67) ?v_71)) (or (or ?v_147 ?v_53) P19)) (or (or ?v_33 ?v_32) ?v_123)) (or (or P27 P26) ?v_80)) (or (or P12 P18) ?v_124)) (or ?v_140 ?v_49)) (or (or ?v_104 ?v_117) ?v_70)) (or (or ?v_9 P9) ?v_14)) (or (or ?v_83 ?v_83) P27)) (or (or ?v_82 ?v_21) ?v_53)) (or (or ?v_125 ?v_57) ?v_90)) (or (or ?v_126 P2) ?v_32)) (or (or ?v_121 ?v_124) ?v_116)) (or (or ?v_53 ?v_65) P19)) (or (or ?v_127 P29) ?v_19)) (or (or ?v_128 ?v_101) ?v_51)) (or (or ?v_46 ?v_49) ?v_98)) (or (or ?v_124 ?v_53) ?v_106)) (or (or ?v_9 ?v_113) ?v_119)) (or (or ?v_4 ?v_1) ?v_66)) (or (or ?v_129 ?v_50) ?v_137)) (or (or ?v_76 ?v_90) ?v_68)) (or (or ?v_53 ?v_5) ?v_30)) (or (or ?v_64 ?v_113) ?v_130)) (or ?v_131 ?v_25)) (or (or ?v_68 P15) P11)) (or (or ?v_77 ?v_106) P7)) (or ?v_131 ?v_2)) (or (or P6 ?v_89) ?v_69)) (or (or ?v_68 ?v_109) ?v_80)) (or (or ?v_132 ?v_62) ?v_12)) (or (or P28 P26) ?v_105)) (or (or ?v_9 P18) P7)) (or (or P12 ?v_47) ?v_133)) (or (or ?v_112 ?v_26) ?v_70)) (or (or ?v_38 ?v_23) ?v_125)) (or (or ?v_20 ?v_105) P2)) (or (or ?v_89 ?v_6) ?v_1)) (or (or ?v_46 ?v_58) ?v_109)) (or (or ?v_100 ?v_134) ?v_27)) (or (or ?v_80 P6) ?v_90)) (or (or ?v_41 P17) ?v_149)) (or (or ?v_106 ?v_86) ?v_64)) (or (or ?v_60 P22) ?v_135)) (or (or P4 ?v_2) ?v_79)) (or (or ?v_103 ?v_116) ?v_96)) (or (or ?v_23 ?v_110) P15)) (or (or ?v_133 ?v_7) ?v_83)) (or (or P15 ?v_1) ?v_117)) (or (or ?v_126 ?v_127) ?v_79)) (or (or ?v_63 ?v_120) P18)) (or (or ?v_148 ?v_58) ?v_70)) (or (or ?v_102 ?v_75) ?v_25)) (or (or ?v_112 ?v_124) ?v_13)) (or (or ?v_56 ?v_13) P18)) (or (or ?v_35 ?v_137) ?v_80)) (or (or P12 ?v_35) ?v_115)) (or (or ?v_52 P29) ?v_115)) (or (or P15 ?v_138) ?v_139)) (or ?v_140 ?v_111)) (or (or ?v_61 ?v_51) ?v_104)) (or (or ?v_61 ?v_115) ?v_108)) (or (or ?v_123 ?v_56) ?v_128)) (or (or ?v_119 ?v_112) ?v_75)) (or (or ?v_28 ?v_141) P24)) (or (or ?v_142 ?v_77) ?v_108)) (or (or ?v_134 ?v_95) ?v_123)) (or (or ?v_1 P20) ?v_123)) (or (or ?v_23 P1) ?v_4)) (or (or ?v_53 ?v_58) ?v_143)) (or (or ?v_56 ?v_126) ?v_69)) (or (or ?v_12 ?v_115) ?v_124)) (or (or P0 ?v_0) ?v_29)) (or ?v_144 ?v_96)) (or (or ?v_54 P14) P9)) (or (or ?v_53 ?v_76) ?v_5)) (or (or P7 ?v_112) P5)) (or (or ?v_51 ?v_55) ?v_145)) (or (or ?v_81 ?v_146) P11)) (or (or ?v_134 ?v_84) ?v_122)) (or (or ?v_141 ?v_52) ?v_37)) (or (or ?v_70 ?v_38) ?v_66)) (or (or ?v_111 ?v_118) ?v_75)) (or (or ?v_104 ?v_142) ?v_147)) (or (or P5 ?v_72) P29)) (or (or ?v_42 ?v_119) P5)) (or (or ?v_97 P7) ?v_58)) (or (or P1 ?v_148) P10)) (or (or ?v_21 ?v_56) ?v_133)) (or (or ?v_24 ?v_37) ?v_93)) (or (or ?v_84 ?v_100) P10)) (or (or P7 P14) ?v_118)) (or (or ?v_6 ?v_132) ?v_60)) (or (or ?v_121 ?v_73) ?v_96)) (or (or ?v_149 ?v_21) ?v_20)) (or (or ?v_116 ?v_87) ?v_38)) (or (or P17 ?v_60) ?v_57)) (or (or ?v_106 ?v_60) ?v_149)) (or (or ?v_150 ?v_68) ?v_35)) (or (or ?v_23 P2) ?v_83)) (or (or ?v_53 ?v_53) ?v_91)) (or (or ?v_86 ?v_86) ?v_108)) (or (or ?v_81 ?v_61) ?v_57)) (or (or ?v_126 ?v_54) ?v_148)) (or (or ?v_127 ?v_57) ?v_67)) (or (or ?v_105 ?v_2) ?v_65)) (or (or ?v_112 ?v_91) ?v_96)) (or (or ?v_59 ?v_76) ?v_20)) (or (or ?v_116 ?v_47) ?v_93)) (or (or ?v_97 ?v_147) ?v_116)) (or (or P26 ?v_19) ?v_147)) (or (or ?v_137 P27) ?v_82)) (or (or ?v_40 ?v_101) ?v_38)) (or (or ?v_147 P6) P18)) (or (or ?v_67 ?v_113) P20)) (or (or ?v_9 ?v_142) P3)) (or (or ?v_126 ?v_39) ?v_106)) (or (or ?v_110 ?v_135) ?v_89)) (or (or ?v_40 ?v_91) ?v_120)) (or (or ?v_21 ?v_150) ?v_67)) (or (or ?v_62 ?v_111) ?v_35)) (or (or ?v_4 P7) ?v_105)) (or (or ?v_105 ?v_94) P29)) (or (or P11 ?v_134) ?v_82)) (or (or P19 ?v_61) ?v_42)) (or (or ?v_55 ?v_121) ?v_63)) (or (or ?v_125 P4) ?v_149)) (or (or ?v_151 ?v_84) ?v_16)) (or (or ?v_89 ?v_38) P24)) (or (or P20 ?v_64) P12)) (or (or ?v_145 ?v_15) ?v_139)) (or (or ?v_139 ?v_70) ?v_68)) (or (or P18 ?v_12) ?v_27)) (or (or ?v_53 ?v_92) ?v_51)) (or (or ?v_135 ?v_108) ?v_118)) (or (or ?v_27 ?v_121) ?v_72)) (or (or ?v_151 ?v_65) ?v_91)) (or (or ?v_86 ?v_22) ?v_46)) (or (or ?v_48 P18) P21)) (or (or ?v_41 P22) ?v_13)) (or (or ?v_10 P26) ?v_106)) (or (or ?v_66 ?v_1) ?v_132)) (or (or P21 ?v_108) ?v_2)) (or (or ?v_110 ?v_88) ?v_113)) (or (or ?v_48 ?v_115) ?v_53)) (or (or P13 ?v_30) ?v_109)) (or (or ?v_59 ?v_152) ?v_128)) (or (or ?v_65 P11) ?v_93)) (or (or ?v_100 ?v_85) ?v_7)) (or (or ?v_2 ?v_119) ?v_147)) (or (or ?v_142 ?v_75) ?v_46)) (or (or ?v_100 ?v_46) ?v_81)) (or (or ?v_42 P27) ?v_97)) (or (or ?v_107 ?v_136) ?v_12)) (or (or ?v_5 ?v_64) ?v_93)) (or (or P17 ?v_35) ?v_100)) (or (or ?v_118 ?v_46) ?v_35)) (or (or ?v_70 P11) ?v_151)) (or (or ?v_145 ?v_38) ?v_111)) (or (or ?v_136 ?v_22) ?v_4)) (or (or P3 ?v_64) ?v_56)) (or (or ?v_82 ?v_100) ?v_69)) (or (or ?v_83 ?v_90) P11)) (or (or ?v_136 P15) ?v_91)) (or (or ?v_65 ?v_106) ?v_129)) (or (or ?v_92 ?v_48) ?v_23)) (or (or ?v_153 P23) ?v_0)) (or (or ?v_86 ?v_63) ?v_89)) (or (or ?v_152 ?v_83) ?v_92)) (or (or P12 P5) ?v_145)) (or (or P4 P4) ?v_21)) (or (or ?v_91 ?v_130) ?v_96)) (or (or ?v_45 P9) ?v_9)) (or (or ?v_153 ?v_152) ?v_83)) (or (or ?v_136 ?v_119) ?v_91)) (or (or ?v_132 ?v_121) ?v_10)) (or (or (not ?v_65) ?v_103) P16)) (or (or ?v_13 ?v_84) ?v_88)) (or (or ?v_132 ?v_61) ?v_12)) (or (or P11 ?v_24) ?v_99)) (or (or ?v_20 ?v_99) P3)) (or (or ?v_35 ?v_7) ?v_107)) (or (or ?v_26 ?v_97) P18)) (or (or ?v_93 ?v_125) ?v_94)) (or (or P12 ?v_115) P25)) (or (or ?v_143 ?v_96) ?v_150)) (or (or ?v_102 P21) ?v_4)) (or (or P16 ?v_98) ?v_24)) (or (or ?v_0 (not ?v_141)) ?v_62)) (or (or ?v_47 P20) ?v_22)) (or (or ?v_79 ?v_94) ?v_127)) (or (or ?v_101 ?v_24) P8)) (or (or ?v_27 ?v_134) ?v_75)) (or (or ?v_71 ?v_86) ?v_43))))))))))))))))))))))))
(check-sat)
(exit)
